p cnf 14 30
1 -11 0
10 -11 0
-1 -10 11 0
9 -6 0
11 -6 0
-9 -11 6 0
11 4 0
-11 -4 0
9 -13 0
11 -13 0
-9 -11 13 0
8 -7 0
3 -7 0
-8 -3 7 0
2 -12 0
7 -12 0
-2 -7 12 0
7 5 0
-7 -5 0
2 -14 0
7 -14 0
-2 -7 14 0
-8 5 0
8 -5 0
-3 12 0
3 -12 0
-1 0
8 0
-10 0
-3 0